
  32    1
  10

   0   0  12 2 3 4 5 6 7 9 10 11 13 20 31 
   6   1   5 19 18 15 14 8 
   8   8   6 28 24 19 18 17 12 
   5   5   6 28 27 26 18 17 12 
   6   9   2 24 8 
   5   7   7 28 26 25 23 22 21 16 
   3   6   5 27 26 18 17 15 
   5   7   5 29 26 23 17 12 
   1   4   5 28 27 23 21 15 
   1   3   5 27 26 24 22 18 
   5   6   3 28 17 12 
   1   8   3 25 22 21 
   2   3   3 25 24 23 
   5   7   2 24 17 
   2   8   2 24 22 
   7   8   2 30 29 
   5   7   1 21 
   2   3   1 23 
   8   3   1 27 
   6   6   1 26 
   7   6   1 32
   7   8   1 32
   4   4   1 32
   2   6   1 32
   3   7   1 32
   8   4   1 32
   5  10   1 32
   5   6   1 32
   5   8   1 32
   1   6   1 32
  10   6   1 32
   0   0   0 
